40 40
20
3 3 37 21
3 4 37 17
3 5 5 35
3 6 0 12
3 7 37 10
3 8 5 27
3 9 0 18
3 10 37 0
3 12 5 0
3 16 37 24
3 40 8 0
4 4 11 14
4 14 11 0
4 22 11 18
5 3 3 12
5 4 0 0
5 8 0 4
5 12 3 15
5 13 0 27
22 40 15 0
